(set-info :smt-lib-version 2.6)
(set-logic QF_BV)
(set-info :source |
 Patrice Godefroid, SAGE (systematic dynamic test generation)
 For more information: http://research.microsoft.com/en-us/um/people/pg/public_psfiles/ndss2008.pdf
|)
(set-info :category "industrial")
(set-info :status sat)
(declare-fun T4_11044 () (_ BitVec 32))
(declare-fun T4_7854 () (_ BitVec 32))
(declare-fun T1_11044 () (_ BitVec 8))
(declare-fun T1_11045 () (_ BitVec 8))
(declare-fun T1_11046 () (_ BitVec 8))
(declare-fun T1_11047 () (_ BitVec 8))
(declare-fun T1_7854 () (_ BitVec 8))
(declare-fun T1_7855 () (_ BitVec 8))
(declare-fun T1_7856 () (_ BitVec 8))
(declare-fun T1_7857 () (_ BitVec 8))
(assert (and true (= T4_7854 (bvor (bvshl (bvor (bvshl (bvor (bvshl ((_ zero_extend 24) T1_7857) (_ bv8 32)) ((_ zero_extend 24) T1_7856)) (_ bv8 32)) ((_ zero_extend 24) T1_7855)) (_ bv8 32)) ((_ zero_extend 24) T1_7854))) (= T4_11044 (bvor (bvshl (bvor (bvshl (bvor (bvshl ((_ zero_extend 24) T1_11047) (_ bv8 32)) ((_ zero_extend 24) T1_11046)) (_ bv8 32)) ((_ zero_extend 24) T1_11045)) (_ bv8 32)) ((_ zero_extend 24) T1_11044))) (not (= T4_7854 T4_11044))))
(check-sat)
(exit)
